NAME : zqloutput/eax-hard-simple-rescaleandround/50-8.tsp
TYPE : TSP
DIMENSION : 50
EDGE_WEIGHT_TYPE : EUC_2D
NODE_COORD_SECTION
1 826317 614332
2 424233 291696
3 108279 503867
4 641591 807595
5 338489 515030
6 818626 208370
7 435960 214359
8 66325 809846
9 429018 667352
10 382173 392008
11 134452 43810
12 523242 812241
13 883466 509807
14 654642 279533
15 778311 29524
16 494829 484819
17 766722 719247
18 509795 441659
19 893237 208434
20 331595 438581
21 598840 312545
22 331409 142457
23 934390 106690
24 142542 274273
25 569007 280292
26 537857 792267
27 427548 574661
28 334751 451699
29 532585 698005
30 576746 9557
31 448374 661992
32 803059 195075
33 262078 27929
34 983523 473029
35 37112 121346
36 435897 293173
37 707756 346779
38 262918 62254
39 414890 897361
40 900500 400737
41 22541 408469
42 226833 246370
43 633449 576610
44 945565 582726
45 356081 88078
46 396916 726020
47 153138 847862
48 256292 679727
49 740124 839118
50 982300 199748
EOF
